Solver command line: ['C:\\gurobi1002\\win64\\bin\\gurobi.bat']

Set parameter Username
Academic license - for non-commercial use only - expires 2024-08-20
Read LP format model from file C:\Users\mhafeman\AppData\Local\Temp\tmpto_mu0_q.pyomo.lp
Reading time = 1.74 seconds
obj: 385441 rows, 332879 columns, 893506 nonzeros
Gurobi Optimizer version 10.0.2 build v10.0.2rc0 (win64)

CPU model: AMD Ryzen 7 3800X 8-Core Processor, instruction set [SSE2|AVX|AVX2]
Thread count: 8 physical cores, 16 logical processors, using up to 16 threads

Optimize a model with 385441 rows, 332879 columns and 893506 nonzeros
Model fingerprint: 0xa1325542
Model has 8759 quadratic constraints
Variable types: 254040 continuous, 78839 integer (61320 binary)
Coefficient statistics:
  Matrix range     [1e-04, 3e+02]
  QMatrix range    [1e+00, 1e+00]
  Objective range  [1e-02, 3e+02]
  Bounds range     [1e+00, 3e+00]
  RHS range        [1e-03, 3e+03]
Presolve removed 298795 rows and 229551 columns
Presolve time: 1.38s
Presolved: 86646 rows, 103328 columns, 234973 nonzeros
Variable types: 60843 continuous, 42485 integer (42485 binary)
Found heuristic solution: objective -2.65981e+07
Deterministic concurrent LP optimizer: primal and dual simplex
Showing first log only...

Concurrent spin time: 0.00s

Solved with dual simplex

Root relaxation: objective -4.615229e+07, 22268 iterations, 0.61 seconds (0.65 work units)

    Nodes    |    Current Node    |     Objective Bounds      |     Work
 Expl Unexpl |  Obj  Depth IntInf | Incumbent    BestBd   Gap | It/Node Time

     0     0 -4.615e+07    0  204 -2.660e+07 -4.615e+07  73.5%     -    3s
H    0     0                    -4.61483e+07 -4.615e+07  0.01%     -    3s

Explored 1 nodes (42116 simplex iterations) in 3.26 seconds (3.20 work units)
Thread count was 16 (of 16 available processors)

Solution count 2: -4.61483e+07 -2.65981e+07 

Optimal solution found (tolerance 1.00e-04)
Best objective -4.614832426500e+07, best bound -4.615228517359e+07, gap 0.0086%

